c
c
c
c
c
10 45
1 2 37
1 3 18
1 4 1
1 5 39
1 6 3
1 7 9
1 8 40
1 9 31
1 10 6
2 3 42
2 4 10
2 5 48
2 6 16
2 7 8
2 8 31
2 9 2
2 10 9
3 4 35
3 5 30
3 6 21
3 7 33
3 8 25
3 9 30
3 10 18
4 5 26
4 6 20
4 7 20
4 8 2
4 9 10
4 10 36
5 6 44
5 7 19
5 8 16
5 9 17
5 10 43
6 7 12
6 8 36
6 9 13
6 10 2
7 8 5
7 9 3
7 10 12
8 9 41
8 10 41
9 10 46
